networks/zoo_220_2398/zoo_220_2398-lower.txt
Number of groups: 81
Flow 1: {3 56 0} {56 93 0} {93 58 0} {32 11 0} {11 121 0} 
Flow 1: {58 57 0} {57 17 0} {17 73 0} {73 21 0} {21 32 0} Flow 2: {3 102 0} {102 85 0} {72 42 0} {42 152 0} 
Flow 2: {85 64 0} {64 72 0} Flow 3: {72 41 0} {41 82 0} {82 44 0} {44 154 0} 
Flow 4: {4 50 0} {50 39 0} {20 8 0} {8 118 0} 
Flow 4: {53 13 0} {13 20 0} {39 53 0} Flow 5: {8 9 0} {9 119 0} 
Flow 6: {4 3 0} Flow 7: {73 12 0} {12 122 0} 
Flow 8: {13 123 0} 
Flow 9: {12 107 0} {107 106 0} {106 14 0} {14 124 0} 
Flow 10: {11 18 0} {18 128 0} 
Flow 11: {13 27 0} {27 19 0} {19 129 0} 
Flow 12: {11 23 0} {23 133 0} 
Flow 13: {13 28 0} {28 138 0} 
Flow 14: {39 149 0} 
Flow 15: {41 151 0} 
Flow 15: {50 71 0} {71 64 0} Flow 17: {50 49 0} {49 5 0} {5 6 0} {6 34 0} {34 33 0} {33 44 0} Flow 18: {9 10 0} {10 40 0} {40 37 0} {37 54 0} {54 45 0} {45 155 0} 
Flow 19: {19 48 0} {48 158 0} 
Flow 20: {49 159 0} 
Flow 21: {56 55 0} {55 165 0} 
Flow 22: {56 166 0} 
Flow 23: {58 168 0} 
Flow 24: {64 174 0} 
Flow 25: {34 46 0} {46 68 0} {68 66 0} {66 176 0} 
Flow 26: {33 75 0} {75 185 0} 
Flow 27: {58 51 0} {51 96 0} {96 87 0} {87 95 0} {95 205 0} 
Flow 28: {4 102 0} {102 212 0} 
Flow 29: {34 7 0} {7 20 0} Flow 30: {20 13 0} {28 17 0} Flow 31: {6 5 0} {5 49 0} {49 39 0} Flow 32: {44 43 0} {43 69 0} {69 42 0} Flow 34: {39 55 0} {55 56 0} Flow 38: {8 19 0} {48 74 0} {74 12 0} Flow 43: {13 53 0} {53 39 0} Flow 44: {7 34 0} Flow 48: {34 6 0} Flow 50: {17 57 0} {57 58 0} Flow 51: {49 50 0} Flow 52: {17 90 0} {90 52 0} {52 51 0} Flow 53: {50 4 0} Flow 54: {76 36 0} {36 1 0} {1 111 0} 
Flow 54: {37 76 0} Flow 55: {40 2 0} {2 112 0} 
Flow 56: {5 115 0} 
Flow 56: {8 65 0} {65 46 0} {46 34 0} Flow 57: {6 116 0} 
Flow 58: {20 7 0} {7 117 0} 
Flow 58: {8 20 0} Flow 60: {10 120 0} 
Flow 61: {19 28 0} Flow 64: {48 47 0} {47 35 0} {35 105 0} {105 14 0} Flow 65: {45 16 0} {16 126 0} 
Flow 68: {20 130 0} 
Flow 69: {47 22 0} {22 132 0} 
Flow 71: {32 24 0} {24 134 0} 
Flow 73: {33 143 0} 
Flow 74: {34 144 0} 
Flow 75: {36 146 0} 
Flow 77: {44 82 0} {82 41 0} Flow 79: {43 153 0} 
Flow 82: {46 156 0} 
Flow 84: {39 49 0} Flow 85: {39 50 0} {50 160 0} 
Flow 86: {52 162 0} 
Flow 87: {53 163 0} 
Flow 88: {54 164 0} 
Flow 91: {57 167 0} 
Flow 93: {45 61 0} {61 171 0} 
Flow 94: {42 63 0} {63 173 0} 
Flow 96: {65 175 0} 
Flow 98: {68 178 0} 
Flow 99: {71 181 0} 
Flow 100: {41 72 0} {72 182 0} 
Flow 101: {74 184 0} 
Flow 102: {46 75 0} Flow 103: {76 186 0} 
Flow 104: {52 89 0} {89 77 0} {77 187 0} 
Flow 105: {57 78 0} {78 188 0} 
Flow 106: {44 79 0} {79 81 0} {81 191 0} 
Flow 107: {85 195 0} 
Flow 108: {89 199 0} 
Flow 109: {90 200 0} 
Flow 110: {102 92 0} {92 202 0} 
Flow 111: {58 93 0} {93 203 0} 
Flow 112: {52 94 0} {94 204 0} 
Flow 115: {35 103 0} {103 213 0} 
Flow 116: {103 104 0} {104 214 0} 
Flow 117: {105 215 0} 
Flow 118: {107 108 0} {108 218 0} 
Flow 119: {33 67 0} {67 110 0} {110 220 0} 
Flow 120: {9 8 0} Flow 121: {9 65 0} Flow 124: {10 9 0} Flow 133: {11 38 0} {38 62 0} {62 14 0} {14 105 0} {105 35 0} {104 1 0} Flow 134: {11 32 0} {32 21 0} {73 17 0} {17 28 0} {28 19 0} {19 8 0} {21 73 0} Flow 135: {93 56 0} {56 3 0} {3 113 0} 
Flow 136: {4 114 0} 
Flow 136: {28 13 0} Flow 146: {1 36 0} {36 54 0} {45 15 0} {15 125 0} 
Flow 151: {21 131 0} 
Flow 152: {12 22 0} Flow 154: {18 24 0} Flow 155: {27 137 0} 
Flow 157: {85 31 0} {31 141 0} 
Flow 160: {35 145 0} 
Flow 169: {12 74 0} {74 48 0} Flow 185: {69 179 0} 
Flow 190: {36 76 0} Flow 193: {79 189 0} 
Flow 195: {82 192 0} 
Flow 196: {11 84 0} {84 194 0} 
Flow 200: {92 91 0} {91 201 0} 
Flow 205: {31 100 0} {100 210 0} 
Flow 210: {38 59 0} {59 108 0} Flow 211: {95 109 0} {109 219 0} 
Flow 213: {48 19 0} Flow 215: {12 73 0} Flow 225: {22 47 0} Flow 304: {35 47 0} {47 48 0} Flow 306: {14 62 0} {62 38 0} {38 11 0} Flow 307: {14 106 0} {106 107 0} {107 12 0} Flow 325: {15 45 0} {45 54 0} {54 37 0} {37 40 0} {40 10 0} Flow 326: {1 104 0} {104 103 0} {54 36 0} {103 35 0} Flow 327: {22 12 0} Flow 330: {2 66 0} {66 68 0} {68 46 0} Flow 334: {16 45 0} Flow 430: {18 11 0} Flow 609: {23 11 0} Flow 625: {24 32 0} Flow 626: {24 18 0} Flow 632: {25 28 0} Flow 634: {25 17 0} Flow 712: {30 29 0} {29 26 0} {26 53 0} Flow 714: {30 78 0} {78 57 0} Flow 731: {31 85 0} {64 71 0} {71 50 0} Flow 733: {85 102 0} {102 3 0} Flow 765: {33 34 0} {46 65 0} {65 9 0} Flow 766: {66 2 0} Flow 800: {72 64 0} Flow 811: {64 85 0} Flow 893: {76 37 0} Flow 977: {108 107 0} Flow 1050: {53 26 0} {26 29 0} {29 30 0} Flow 1051: {41 81 0} Flow 1058: {51 94 0} Flow 1078: {42 41 0} {44 33 0} Flow 1080: {42 72 0} Flow 1106: {42 69 0} {69 43 0} Flow 1113: {51 52 0} Flow 1137: {31 86 0} {86 91 0} Flow 1147: {43 110 0} Flow 1148: {43 44 0} Flow 1161: {69 41 0} Flow 1167: {65 8 0} Flow 1321: {41 69 0} Flow 1360: {51 58 0} Flow 1374: {55 39 0} Flow 1397: {52 90 0} {90 17 0} Flow 1438: {3 4 0} Flow 1686: {59 38 0} Flow 1692: {60 54 0} Flow 1714: {61 45 0} Flow 1732: {63 42 0} Flow 1786: {2 40 0} Flow 1915: {75 46 0} Flow 1919: {75 33 0} Flow 1951: {77 89 0} {89 52 0} Flow 1968: {77 88 0} {88 95 0} Flow 1979: {78 30 0} Flow 1992: {79 44 0} Flow 2001: {81 41 0} {41 42 0} Flow 2011: {81 79 0} Flow 2037: {84 11 0} Flow 2092: {86 31 0} Flow 2111: {87 96 0} {96 51 0} Flow 2169: {91 92 0} {92 102 0} {102 4 0} Flow 2178: {91 86 0} Flow 2219: {94 52 0} Flow 2224: {94 51 0} Flow 2230: {95 87 0} Flow 2266: {95 88 0} {88 77 0} Flow 2295: {98 58 0} Flow 2351: {108 59 0} Time taken running everything: 0 seconds
